Version identifier: 22.1.1.0 | 2022-11-28 | 9160aff4d
CPXPARAM_ClockType                               1
CPXPARAM_Read_DataCheck                          1
CPXPARAM_Threads                                 1
CPXPARAM_TimeLimit                               7200
CPXPARAM_MIP_Tolerances_AbsMIPGap                0
CPXPARAM_MIP_Tolerances_MIPGap                   0
CPXPARAM_MIP_Tolerances_Integrality              0
Tried aggregator 1 time.
MIP Presolve eliminated 15127 rows and 9 columns.
MIP Presolve modified 5218 coefficients.
Reduced MIP has 30364 rows, 14991 columns, and 107006 nonzeros.
Reduced MIP has 14991 binaries, 0 generals, 0 SOSs, and 0 indicators.
Presolve time = 0.12 sec. (83.19 ticks)
Probing time = 0.03 sec. (7.33 ticks)
Tried aggregator 1 time.
Detecting symmetries...
MIP Presolve eliminated 1000 rows and 0 columns.
Reduced MIP has 29364 rows, 14991 columns, and 102006 nonzeros.
Reduced MIP has 14991 binaries, 0 generals, 0 SOSs, and 0 indicators.
Presolve time = 0.14 sec. (85.79 ticks)
Probing time = 0.02 sec. (6.82 ticks)
Clique table members: 58034.
MIP emphasis: balance optimality and feasibility.
MIP search method: dynamic search.
Parallel mode: none, using 1 thread.
Root relaxation solution time = 107.81 sec. (69608.34 ticks)

        Nodes                                         Cuts/
   Node  Left     Objective  IInf  Best Integer    Best Bound    ItCnt     Gap

      0     0     8000.0000  2905                   8000.0000    61374         
      0     0     8000.0000  2785                    Cuts: 49   119237         
      0     0     8000.0000  2985                    Cuts: 71   182461         
      0     0     8000.0000  3038                   Cuts: 106   243265         
Heuristic still looking.
Heuristic still looking.
*     0+    0                            0.0000     8000.0000              --- 
Detecting symmetries...
      0     2     8000.0000  2394        0.0000     8000.0000   243265     --- 
Elapsed time = 1251.10 sec. (696113.95 ticks, tree = 0.01 MB, solutions = 1)
      1     3     8000.0000  3194        0.0000     8000.0000   384769     --- 
      2     4     8000.0000  2936        0.0000     8000.0000   438292     --- 
      3     5     8000.0000  3011        0.0000     8000.0000   493335     --- 
      4     6     8000.0000  2917        0.0000     8000.0000   493871     --- 
      5     7     8000.0000  2708        0.0000     8000.0000   509308     --- 
      6     8     8000.0000  2869        0.0000     8000.0000   608675     --- 
      7     9     8000.0000  2677        0.0000     8000.0000   610082     --- 
      8    10     7998.0000  2680        0.0000     8000.0000   610926     --- 
     10    12     8000.0000  2693        0.0000     8000.0000   612970     --- 
     11    13     8000.0000  2634        0.0000     8000.0000   616577     --- 
Elapsed time = 1841.14 sec. (1030822.20 ticks, tree = 0.09 MB, solutions = 1)
     13    15     8000.0000  2615        0.0000     8000.0000   620099     --- 
     15    17     8000.0000  2611        0.0000     8000.0000   625057     --- 
     16    18     8000.0000  2609        0.0000     8000.0000   625075     --- 
     18    20     8000.0000  2568        0.0000     8000.0000   628657     --- 
     20    22     8000.0000  2565        0.0000     8000.0000   630016     --- 
     22    24     8000.0000  2574        0.0000     8000.0000   632271     --- 
     23    25     7998.0000  3040        0.0000     8000.0000   689435     --- 
     24    26     8000.0000  2511        0.0000     8000.0000   694442     --- 
     26    28     8000.0000  2522        0.0000     8000.0000   697410     --- 
     27    29     8000.0000  2510        0.0000     8000.0000   700072     --- 
Elapsed time = 2059.55 sec. (1158234.07 ticks, tree = 0.21 MB, solutions = 1)
     29    31     8000.0000  2502        0.0000     8000.0000   702720     --- 
     30    32     8000.0000  2492        0.0000     8000.0000   702990     --- 
     32    34     8000.0000  2463        0.0000     8000.0000   706388     --- 
     34    36     8000.0000  2465        0.0000     8000.0000   709900     --- 
     35    37     8000.0000  2462        0.0000     8000.0000   712322     --- 
     37    39     8000.0000  2484        0.0000     8000.0000   714905     --- 
     39    41     8000.0000  2480        0.0000     8000.0000   719413     --- 
     41    43     8000.0000  2421        0.0000     8000.0000   723022     --- 
     42    44     8000.0000  2443        0.0000     8000.0000   726074     --- 
     43    45     7994.0000  2339        0.0000     8000.0000   751291     --- 
Elapsed time = 2275.84 sec. (1268387.60 ticks, tree = 0.34 MB, solutions = 1)
     45    47     7986.0000  2353        0.0000     8000.0000   761023     --- 
     46    48     7994.0000  2325        0.0000     8000.0000   761714     --- 
     48    50     7994.0000  2288        0.0000     8000.0000   765519     --- 
     50    52     7994.0000  2312        0.0000     8000.0000   767796     --- 
     53    55     7994.0000  2320        0.0000     8000.0000   770401     --- 
     55    57     7994.0000  2315        0.0000     8000.0000   773056     --- 
     57    59     7994.0000  2328        0.0000     8000.0000   777420     --- 
     59    61     7994.0000  2360        0.0000     8000.0000   782436     --- 
     60    62     7994.0000  2324        0.0000     8000.0000   784318     --- 
     62    64     7994.0000  2309        0.0000     8000.0000   787018     --- 
Elapsed time = 2315.83 sec. (1288409.11 ticks, tree = 0.50 MB, solutions = 1)
     64    66     7994.0000  2347        0.0000     8000.0000   792132     --- 
     66    68     7994.0000  2329        0.0000     8000.0000   794460     --- 
     70    72     7994.0000  2314        0.0000     8000.0000   798114     --- 
     72    74     7994.0000  2334        0.0000     8000.0000   800913     --- 
     74    76     7994.0000  2348        0.0000     8000.0000   803545     --- 
     75    77     7994.0000  2306        0.0000     8000.0000   807449     --- 
     77    79     7994.0000  2316        0.0000     8000.0000   810012     --- 
     80    82     7994.0000  2326        0.0000     8000.0000   813796     --- 
     83    85     7994.0000  2338        0.0000     8000.0000   815972     --- 
     87    89     7994.0000  2324        0.0000     8000.0000   819297     --- 
Elapsed time = 2342.62 sec. (1302508.22 ticks, tree = 0.73 MB, solutions = 1)
     89    91     7994.0000  2250        0.0000     8000.0000   823511     --- 
     91    93     7994.0000  2262        0.0000     8000.0000   827381     --- 
     93    95     7994.0000  2254        0.0000     8000.0000   830720     --- 
     94    96     7994.0000  2277        0.0000     8000.0000   834093     --- 
     95    97     7994.0000  2201        0.0000     8000.0000   836005     --- 
     97    99     7994.0000  2209        0.0000     8000.0000   839687     --- 
     99   101     7994.0000  2209        0.0000     8000.0000   843057     --- 
    102   104     7994.0000  2239        0.0000     8000.0000   846626     --- 
    104   106     7994.0000  2241        0.0000     8000.0000   849301     --- 
    106   108     7994.0000  2208        0.0000     8000.0000   852264     --- 
Elapsed time = 2372.39 sec. (1318244.67 ticks, tree = 0.89 MB, solutions = 1)
    107   109     7994.0000  2208        0.0000     8000.0000   857753     --- 
    108   110     7994.0000  2162        0.0000     8000.0000   860534     --- 
    110   112     7994.0000  2145        0.0000     8000.0000   862088     --- 
    112   114     7994.0000  2146        0.0000     8000.0000   864142     --- 
    113   115     7994.0000  2133        0.0000     8000.0000   865697     --- 
    116   118     7994.0000  2157        0.0000     8000.0000   868975     --- 
    118   120     7994.0000  2186        0.0000     8000.0000   872345     --- 
    120   122     7994.0000  2161        0.0000     8000.0000   875820     --- 
    123   125     7994.0000  2117        0.0000     8000.0000   878772     --- 
    125   127     7994.0000  2103        0.0000     8000.0000   881660     --- 
Elapsed time = 2402.05 sec. (1334129.21 ticks, tree = 1.08 MB, solutions = 1)
    126   128     7994.0000  2113        0.0000     8000.0000   884554     --- 
    127   129     7994.0000  2074        0.0000     8000.0000   886846     --- 
    129   131     7994.0000  2099        0.0000     8000.0000   889152     --- 
    131   133     7994.0000  2104        0.0000     8000.0000   893873     --- 
    133   135     7994.0000  2105        0.0000     8000.0000   897900     --- 
    135   137     7994.0000  2088        0.0000     8000.0000   901548     --- 
    138   140     7994.0000  2116        0.0000     8000.0000   904161     --- 
    140   142     7994.0000  2096        0.0000     8000.0000   905699     --- 
    141   143     7994.0000  2107        0.0000     8000.0000   908321     --- 
    143   145     7994.0000  2110        0.0000     8000.0000   910216     --- 
Elapsed time = 2480.13 sec. (1376143.92 ticks, tree = 1.23 MB, solutions = 1)
    144   146     7994.0000  2068        0.0000     8000.0000   913157     --- 
    146   148     7994.0000  2077        0.0000     8000.0000   916670     --- 
    147   149     7994.0000  2049        0.0000     8000.0000   919705     --- 
    149   151     7994.0000  2024        0.0000     8000.0000   922655     --- 
    151   153     7994.0000  2034        0.0000     8000.0000   925429     --- 
    153   155     7994.0000  2057        0.0000     8000.0000   928330     --- 
    155   157     7994.0000  1994        0.0000     8000.0000   934334     --- 
    157   159     7994.0000  2004        0.0000     8000.0000   936928     --- 
    158   160     7994.0000  2008        0.0000     8000.0000   940454     --- 
    159   161     7994.0000  1941        0.0000     8000.0000   943127     --- 
Elapsed time = 2511.88 sec. (1392786.98 ticks, tree = 1.39 MB, solutions = 1)
    163   165     7994.0000  1956        0.0000     8000.0000   946696     --- 
    164   166     7994.0000  1934        0.0000     8000.0000   949613     --- 
    166   168     7994.0000  1962        0.0000     8000.0000   954849     --- 
    169   171     7994.0000  1960        0.0000     8000.0000   959086     --- 
    170   172     7994.0000  1874        0.0000     8000.0000   964481     --- 
    171   173     7994.0000  1853        0.0000     8000.0000   965186     --- 
    173   175     7994.0000  1892        0.0000     8000.0000   968085     --- 
    177   179     7994.0000  1895        0.0000     8000.0000   972429     --- 
    179   181     7994.0000  1938        0.0000     8000.0000   974818     --- 
    183   185     7994.0000  1902        0.0000     8000.0000   985103     --- 
Elapsed time = 2556.55 sec. (1414160.90 ticks, tree = 1.61 MB, solutions = 1)
    185   187     7994.0000  1823        0.0000     8000.0000   993865     --- 
    188   190     7994.0000  1794        0.0000     8000.0000  1001102     --- 
    193   195     7994.0000  1805        0.0000     8000.0000  1012467     --- 
    199   201     7994.0000  1790        0.0000     8000.0000  1020999     --- 
    204   206     7994.0000  1782        0.0000     8000.0000  1031020     --- 
    211   213     7994.0000  1808        0.0000     8000.0000  1040687     --- 
    217   219     7994.0000  1803        0.0000     8000.0000  1050054     --- 
    220   222     7994.0000  1788        0.0000     8000.0000  1056156     --- 
    223   225     7994.0000  1734        0.0000     8000.0000  1064698     --- 
    227   229     7994.0000  1743        0.0000     8000.0000  1075554     --- 
Elapsed time = 2665.79 sec. (1470323.70 ticks, tree = 2.01 MB, solutions = 1)
    232   234     7994.0000  1729        0.0000     8000.0000  1082600     --- 
    239   241     7994.0000  1712        0.0000     8000.0000  1088473     --- 
    240   242     7994.0000  1705        0.0000     8000.0000  1090678     --- 
    243   245     7994.0000  1645        0.0000     8000.0000  1098023     --- 
    249   251     7993.5000  1650        0.0000     8000.0000  1109893     --- 
    261   263     7992.0000  2148        0.0000     8000.0000  1145603     --- 
    262   264     7992.0000  2121        0.0000     8000.0000  1174984     --- 
    270   272     7992.0000  1990        0.0000     8000.0000  1183234     --- 
    276   278     7992.0000  1872        0.0000     8000.0000  1194236     --- 
    278   280     7992.0000  1700        0.0000     8000.0000  1203770     --- 
Elapsed time = 2842.72 sec. (1562109.70 ticks, tree = 2.84 MB, solutions = 1)
    283   285     7992.0000  1504        0.0000     8000.0000  1221550     --- 
    286   288     7992.0000  1426        0.0000     8000.0000  1233119     --- 
    292   294     7992.0000  1275        0.0000     8000.0000  1242935     --- 
    298   300     7992.0000  1250        0.0000     8000.0000  1255520     --- 
    301   303     7992.0000  1269        0.0000     8000.0000  1271908     --- 
    306   308     7992.0000  1325        0.0000     8000.0000  1292879     --- 
    307   309     7992.0000  1209        0.0000     8000.0000  1314334     --- 
    308   310     7992.0000  1267        0.0000     8000.0000  1333289     --- 
    309   311     7992.0000  1152        0.0000     8000.0000  1356429     --- 
    313   315     7992.0000  1137        0.0000     8000.0000  1367038     --- 
Elapsed time = 2990.65 sec. (1633079.50 ticks, tree = 3.16 MB, solutions = 1)
    324   326     7992.0000  1143        0.0000     8000.0000  1372892     --- 
    325   327     7992.0000  1226        0.0000     8000.0000  1389079     --- 
    326   328     7992.0000  1095        0.0000     8000.0000  1404778     --- 
    328   330     7991.8182  1465        0.0000     8000.0000  1425842     --- 
    334   336     7991.9451  1722        0.0000     8000.0000  1461997     --- 
    335   337     7992.0000  1380        0.0000     8000.0000  1509146     --- 
    338   340     7992.0000  1195        0.0000     8000.0000  1524281     --- 
    340   342     7991.9149  1424        0.0000     8000.0000  1532057     --- 
    341   343     7991.6364  1556        0.0000     8000.0000  1547090     --- 
    345   347     7991.8611  1464        0.0000     8000.0000  1557506     --- 
Elapsed time = 3179.11 sec. (1721592.83 ticks, tree = 5.66 MB, solutions = 1)
    346   348     7990.0000  1303        0.0000     8000.0000  1573689     --- 
    347   349     7989.8667  1389        0.0000     8000.0000  1589106     --- 
    349   351     7990.0000  1323        0.0000     8000.0000  1600533     --- 
    353   355     7989.9636  1458        0.0000     8000.0000  1623438     --- 
    355   357     7990.0000  1226        0.0000     8000.0000  1633844     --- 
    356   358     7990.0000  1226        0.0000     8000.0000  1645951     --- 
    359   361     7989.8696  1643        0.0000     8000.0000  1667946     --- 
    362   364     7989.9683  1434        0.0000     8000.0000  1681133     --- 
    364   366     7989.7882  1468        0.0000     8000.0000  1698552     --- 
    367   369     7989.8182  1427        0.0000     8000.0000  1707991     --- 
Elapsed time = 3305.32 sec. (1780953.39 ticks, tree = 5.88 MB, solutions = 1)
    371   373     7983.3333  1368        0.0000     8000.0000  1714498     --- 
    374   376     7982.0000  1140        0.0000     8000.0000  1726139     --- 
    375   377     7981.0000   960        0.0000     8000.0000  1738033     --- 
    376   378     7981.0000   964        0.0000     8000.0000  1746519     --- 
    379   381     7978.9259  1493        0.0000     8000.0000  1759917     --- 
    380   382     7980.0000   972        0.0000     8000.0000  1772703     --- 
    386   388     7980.0000   935        0.0000     8000.0000  1794181     --- 
    392   394     7979.9231  1281        0.0000     8000.0000  1822339     --- 
    393   395     7980.0000  1098        0.0000     8000.0000  1835729     --- 
    395   397     7979.9043  1604        0.0000     8000.0000  1848453     --- 
Elapsed time = 3408.94 sec. (1831418.43 ticks, tree = 6.13 MB, solutions = 1)
    396   398     7979.9541  1622        0.0000     8000.0000  1858578     --- 
    402   404     7979.9512  1964        0.0000     8000.0000  1879837     --- 
    404   406     7979.9502  1628        0.0000     8000.0000  1890332     --- 
    407   409     7979.8482  1565        0.0000     8000.0000  1901146     --- 
    409   411     7978.0000  1341        0.0000     8000.0000  1913677     --- 
    412   414     7977.9412  1392        0.0000     8000.0000  1929061     --- 
    413   415     7977.9494  1533        0.0000     8000.0000  1942698     --- 
    419   421     7976.0000  1315        0.0000     8000.0000  1951817     --- 
    421   423     7976.0000   955        0.0000     8000.0000  1959909     --- 
    426   428     7976.0000   970        0.0000     8000.0000  1976963     --- 
Elapsed time = 3527.08 sec. (1892659.55 ticks, tree = 6.59 MB, solutions = 1)
    427   429     7975.6497  1577        0.0000     8000.0000  2000197     --- 
    430   432     7976.0000   946        0.0000     8000.0000  2013399     --- 
    432   434     7975.3333  1319        0.0000     8000.0000  2040759     --- 
    436   438     7975.7143  1422        0.0000     8000.0000  2064237     --- 
    437   439     7976.0000  1133        0.0000     8000.0000  2076598     --- 
    440   442     7974.8929  1568        0.0000     8000.0000  2095083     --- 
    441   443     7975.5211  1419        0.0000     8000.0000  2112348     --- 
    442   444     7975.5000  1221        0.0000     8000.0000  2125156     --- 
    448   450     7973.9118  1496        0.0000     8000.0000  2154370     --- 
    449   451     7973.9580  1585        0.0000     8000.0000  2173562     --- 
Elapsed time = 3673.08 sec. (1963385.90 ticks, tree = 6.82 MB, solutions = 1)
    456   458     7970.6004  1605        0.0000     8000.0000  2185667     --- 
    463   465     7970.0000  1043        0.0000     8000.0000  2195741     --- 
    464   466     7969.7617  1601        0.0000     8000.0000  2205626     --- 
    465   467     7969.2000  1256        0.0000     8000.0000  2217363     --- 
    470   472     7967.5236  1562        0.0000     8000.0000  2232354     --- 
    471   473     7967.6429  1377        0.0000     8000.0000  2247995     --- 
    474   476     7966.5556  1344        0.0000     8000.0000  2261776     --- 
    476   477     7955.1000  1446        0.0000     8000.0000  2285331     --- 
    477   478     7954.0000  1020        0.0000     8000.0000  2292739     --- 
    479   480     7953.0000  1016        0.0000     8000.0000  2305434     --- 
Elapsed time = 3791.06 sec. (2024500.83 ticks, tree = 7.10 MB, solutions = 1)
    484   485     7952.0000   951        0.0000     8000.0000  2316265     --- 
*   485+  484                          262.0000     8000.0000              --- 
*   485+  484                          324.0000     8000.0000              --- 
*   485+  484                          330.0000     8000.0000              --- 
*   485+  484                          334.0000     8000.0000              --- 
    485   486     7999.3333  2864      334.0000     8000.0000  2370578     --- 
    486   487     7994.0000  2892      334.0000     8000.0000  2472065     --- 
*   488+  487                          342.0000     8000.0000              --- 
    491   492     7996.0000  2436      342.0000     8000.0000  2484596     --- 
    496   497     8000.0000  2422      342.0000     8000.0000  2494660     --- 
    504   505     8000.0000  2452      342.0000     8000.0000  2503256     --- 
    511   512     8000.0000  2437      342.0000     8000.0000  2511892     --- 
    515   516     8000.0000  2392      342.0000     8000.0000  2523250     --- 
    522   523     8000.0000  2414      342.0000     8000.0000  2533195     --- 
    527   528     8000.0000  2366      342.0000     8000.0000  2543527     --- 
Elapsed time = 5055.07 sec. (2829851.75 ticks, tree = 7.53 MB, solutions = 6)
    533   534     8000.0000  2386      342.0000     8000.0000  2551854     --- 
    538   539     8000.0000  2372      342.0000     8000.0000  2563039     --- 
    541   542     8000.0000  2333      342.0000     8000.0000  2571783     --- 
    547   548     8000.0000  2327      342.0000     8000.0000  2579992     --- 
    552   553     8000.0000  2297      342.0000     8000.0000  2588934     --- 
    556   557     8000.0000  2291      342.0000     8000.0000  2596984     --- 
    560   561     7999.3333  2276      342.0000     8000.0000  2598854     --- 
    566   567     7994.0000  2272      342.0000     8000.0000  2608773     --- 
    578   575     7978.0000  2588      342.0000     8000.0000  2657033     --- 
    579   576     7976.0000  2183      342.0000     8000.0000  2667420     --- 
Elapsed time = 5337.21 sec. (2975279.85 ticks, tree = 7.97 MB, solutions = 6)
    583   580     7976.0000  2199      342.0000     8000.0000  2677517     --- 
    590   587     7976.0000  2203      342.0000     8000.0000  2686981     --- 
    597   594     7974.0000  2138      342.0000     8000.0000  2700628     --- 

Performing restart 1

Repeating presolve.
Tried aggregator 1 time.
Reduced MIP has 29364 rows, 14991 columns, and 102006 nonzeros.
Reduced MIP has 14991 binaries, 0 generals, 0 SOSs, and 0 indicators.
Presolve time = 0.08 sec. (57.38 ticks)
Tried aggregator 1 time.
MIP Presolve eliminated 0 rows and 1 columns.
MIP Presolve modified 11 coefficients.
Reduced MIP has 29364 rows, 14990 columns, and 102004 nonzeros.
Reduced MIP has 14990 binaries, 0 generals, 0 SOSs, and 0 indicators.
Presolve time = 0.18 sec. (110.55 ticks)
Represolve time = 0.73 sec. (351.03 ticks)
    598     0     8000.0000  2876      342.0000     Cuts: 117  2821036     --- 
    598     0     8000.0000  3013      342.0000     Cuts: 123  2887017     --- 
    598     0     8000.0000  2998      342.0000      Cuts: 49  2952659     --- 
    598     0     8000.0000  2993      342.0000      Cuts: 72  3017197     --- 
    598     0     8000.0000  3012      342.0000      Cuts: 64  3084358     --- 
    598     0     8000.0000  3001      342.0000      Cuts: 67  3147593     --- 
    598     0     8000.0000  2984      342.0000  ZeroHalf: 54  3211390     --- 

GUB cover cuts applied:  1
Clique cuts applied:  2
Implied bound cuts applied:  1
Zero-half cuts applied:  67
Gomory fractional cuts applied:  3

Root node processing (before b&c):
  Real time             = 1251.01 sec. (696072.93 ticks)
Sequential b&c:
  Real time             = 5949.04 sec. (3373437.04 ticks)
                          ------------
Total (root+branch&cut) = 7200.05 sec. (4069509.97 ticks)
Solution is feasible.

---------------------
@@@ MIP_time_limit_feasible
>>> Benchmark sw100-6.cnf k 10 OPT 342 TimeCost 7238.675270080566 TimeSolve 7229.563348531723 TimeRead 0.007105827331542969 TimeTrans 9.10481572151184
